p tw 36 39
1 2
2 13
3 4
4 5
5 6
6 7
7 8
7 9
8 29
9 10
10 11
11 29
12 14
13 24
14 15
15 16
16 17
17 18
18 19
19 20
20 21
21 22
21 25
22 23
23 29
24 31
25 26
26 27
27 28
28 29
29 30
31 32
31 34
32 33
33 29
34 35
35 36
35 12
36 3
